0000000000000000
0000000000000000
0111111111111100
0111111111111100
0000000000011100
0000000000011100
0000000000011100
0001111100011100
0000011100011100
0000011100011100
0000001100011100
0000000000000000
0000000000000000
0000000000000000
0000000000000000
0000000000000000